10
0, 781, 157, 269, 982, 977, 844, 688, 118, 434
781, 0, 725, 908, 804, 707, 734, 357, 795, 682
157, 725, 0, 196, 828, 829, 690, 569, 269, 277
269, 908, 196, 0, 865, 892, 729, 705, 381, 328
982, 804, 828, 865, 0, 120, 138, 468, 1081, 555
977, 707, 829, 892, 120, 0, 182, 392, 1068, 568
844, 734, 690, 729, 138, 182, 0, 381, 944, 416
688, 357, 569, 705, 468, 392, 381, 0, 753, 404
118, 795, 269, 381, 1081, 1068, 944, 753, 0, 542
434, 682, 277, 328, 555, 568, 416, 404, 542, 0
